Minimize
  - 41 y_0 - 22 y_1 - 40 y_2 - 34 y_3 - 17 y_4 - 26 y_6 - 38 y_7 - 51 y_8
   - 27 y_9 - 21 y_10 - 44 y_11 - 31 y_12 - 15 y_13 - 52 y_14 - 40 y_15
   - 44 y_16 - 17 y_17 - 42 y_18 - 25 y_19 + 627 Constant
Subject To
 c_0: y_5 = 1
 c_1_0: y_0 >= 1
 c_1_1: y_1 + y_6 >= 1
 c_1_2: y_2 + y_7 + y_18 >= 1
 c_1_3: y_3 + y_6 + y_15 >= 1
 c_1_4: y_4 + y_10 + y_13 + y_17 >= 1
 c_1_5: y_5 >= 1
 c_1_6: y_1 + y_3 + y_6 >= 1
 c_1_7: y_2 + y_7 + y_12 + y_18 >= 1
 c_1_8: y_8 + y_18 >= 1
 c_1_9: y_9 + y_12 + y_19 >= 1
 c_1_10: y_4 + y_10 + y_13 + y_17 >= 1
 c_1_11: y_11 >= 1
 c_1_12: y_7 + y_9 + y_12 + y_19 >= 1
 c_1_13: y_4 + y_10 + y_13 + y_17 >= 1
 c_1_14: y_14 >= 1
 c_1_15: y_3 + y_15 >= 1
 c_1_16: y_16 >= 1
 c_1_17: y_4 + y_10 + y_13 + y_17 >= 1
 c_1_18: y_2 + y_7 + y_8 + y_18 >= 1
 c_1_19: y_9 + y_12 + y_19 >= 1
Bounds
 Constant = 1
Binaries
 y_0 y_1 y_2 y_3 y_4 y_5 y_6 y_7 y_8 y_9 y_10 y_11 y_12 y_13 y_14 y_15 y_16
 y_17 y_18 y_19
End
